Maximize
  - 4.337381003498 edge_0_1_0_0 - 4.352159791384 edge_0_2_0_0
   - 2.2920346248405 edge_0_3_0_0 - 2.9202548154633 edge_0_10_0_0
   - 3.09668 edge_0_15_0_0 - 2.48567 edge_0_18_0_0
   + 1.923895186575378 edge_1_2_0_0 + 0.29494142081063 edge_1_3_0_0
   - 0.0361315068188371 edge_1_5_0_0 - 0.1973187768612601 edge_1_6_0_0
   - 0.3458767720776063 edge_1_10_0_0 - 0.8217237145948236 edge_1_12_0_0
   - 1.164860868686 edge_1_15_0_0 - 1.45432291828324 edge_1_26_0_0
   + 3.358279263351218 edge_2_1_0_0 + 0.3604364951800512 edge_2_3_0_0
   - 0.0818326466149256 edge_2_5_0_0 - 0.234555695638999 edge_2_6_0_0
   - 0.7672472361925669 edge_2_12_0_0 - 1.251037099119572 edge_2_26_0_0
   - 0.6243932937427226 edge_3_1_0_0 - 0.2715762723619681 edge_3_2_0_0
   + 0.0738058488338739 edge_3_5_0_0 + 0.8258209052518642 edge_3_6_0_0
   - 0.7023389126527965 edge_5_1_0_0 - 0.6717205791561527 edge_5_2_0_0
   - 0.3342184421181082 edge_5_3_0_0 - 0.3666033806794699 edge_5_6_0_0
   - 0.7084738253018061 edge_5_9_0_0 - 0.8594729541230238 edge_5_10_0_0
   - 1.024790468937 edge_5_15_0_0 - 0.0410174906211024 edge_6_3_0_0
   + 0.1561136739691374 edge_6_5_0_0 + 0.2708302287812611 edge_6_9_0_0
   - 0.0698520211131368 edge_6_10_0_0 + 0.2349707498869974 edge_6_12_0_0
   - 0.57655292457831 edge_6_15_0_0 - 0.130383636031321 edge_9_5_0_0
   + 0.1973571176706342 edge_9_6_0_0 + 0.3654744559741672 edge_9_10_0_0
   + 0.0624235067818954 edge_9_12_0_0 - 0.6313913104424705 edge_10_1_0_0
   - 0.6010286209532643 edge_10_2_0_0 - 0.0870208846962429 edge_10_3_0_0
   + 1.1930287997246 edge_10_5_0_0 + 0.4956060907042374 edge_10_6_0_0
   + 1.844005764531047 edge_10_9_0_0 + 2.688739859563843 edge_10_12_0_0
   + 3.867456068476183 edge_10_14_0_0 + 0.3636261791423099 edge_10_15_0_0
   - 0.302415310477855 edge_10_16_0_0 + 0.032876112525426 edge_10_18_0_0
   - 0.2330028801661699 edge_10_20_0_0 + 0.38117338396542 edge_10_21_0_0
   + 0.4806146252554504 edge_10_22_0_0 - 0.6630570832050344 edge_10_23_0_0
   - 0.5625891221832945 edge_10_24_0_0 + 0.4558465275201276 edge_10_26_0_0
   - 0.7135465259400725 edge_10_27_0_0 - 1.1098038625632 edge_10_28_0_0
   + 2.720475218643771 edge_10_29_0_0 - 0.5943741754181169 edge_12_9_0_0
   - 0.5366458752994705 edge_12_14_0_0 - 0.5645939452357159 edge_14_9_0_0
   - 0.1836722676648591 edge_14_12_0_0 - 0.3451024929054043 edge_14_29_0_0
   - 0.2730060659042 edge_15_1_0_0 - 1.0798714499272 edge_15_2_0_0
   - 0.53211586939845 edge_15_3_0_0 + 0.52482290618127 edge_15_5_0_0
   - 0.050259617535279 edge_15_6_0_0 + 0.52483194461595 edge_15_9_0_0
   + 2.4444458698779 edge_15_10_0_0 + 0.34196383763492 edge_15_12_0_0
   + 2.411460097524 edge_15_14_0_0 - 1.0447121358424 edge_15_16_0_0
   - 0.624107 edge_15_18_0_0 - 1.21947 edge_15_21_0_0
   + 0.13144810014779 edge_15_22_0_0 + 0.7771856425722 edge_15_26_0_0
   + 0.7070415333522799 edge_15_29_0_0 + 1.0339141809304 edge_16_18_0_0
   - 0.8270710323948295 edge_16_20_0_0 + 0.011993828418504 edge_16_21_0_0
   - 0.2618132898117092 edge_17_16_0_0 - 1.622018965404 edge_18_1_0_0
   - 2.432214973377 edge_18_2_0_0 - 1.361136788181 edge_18_9_0_0
   - 1.4800992305697 edge_18_10_0_0 - 0.9208575812244 edge_18_14_0_0
   - 0.131939 edge_18_15_0_0 + 2.870156404248 edge_18_16_0_0
   + 3.7026182044047 edge_18_17_0_0 + 0.4846528190195 edge_18_20_0_0
   + 2.23628 edge_18_21_0_0 + 1.981717048214 edge_18_22_0_0
   - 0.071364986140434 edge_18_23_0_0 - 0.5356059556620001 edge_18_24_0_0
   + 1.7637687639684 edge_18_26_0_0 + 1.6808088906654 edge_18_29_0_0
   + 0.06821238928921 edge_20_18_0_0 + 1.380001620813 edge_20_21_0_0
   - 0.040705955739676 edge_20_22_0_0 - 0.00133557175870842 edge_20_26_0_0
   - 0.171595 edge_21_15_0_0 + 0.43430674409896 edge_21_16_0_0
   + 0.94151624082159 edge_21_17_0_0 + 0.895813 edge_21_18_0_0
   + 3.41920600587 edge_21_20_0_0 + 1.7666769330939 edge_21_22_0_0
   + 0.53282891316585 edge_21_23_0_0 + 0.30716076759687 edge_21_24_0_0
   + 1.9282467836292 edge_21_26_0_0 - 0.9069716436470701 edge_21_27_0_0
   - 2.123 edge_21_28_0_0 + 1.128549255157 edge_21_29_0_0
   - 0.4270274399266828 edge_22_23_0_0 - 1.195878788284053 edge_23_16_0_0
   - 0.724909655567358 edge_23_20_0_0 - 1.4724061209489 edge_23_21_0_0
   + 0.1007056447383373 edge_23_22_0_0 + 0.1793606549426334 edge_23_24_0_0
   - 0.2730757573437366 edge_23_27_0_0 - 0.73369947313563 edge_23_28_0_0
   + 0.2489932480501178 edge_23_29_0_0 - 0.5426452788265587 edge_24_23_0_0
   - 0.0997841829045302 edge_24_24_0_0 - 0.193004027059761 edge_24_27_0_0
   - 0.2769992464879201 edge_24_28_0_0 - 2.310889749312424 edge_26_1_0_0
   - 1.576620363735469 edge_26_2_0_0 - 1.045023762783906 edge_26_3_0_0
   - 0.5750166173826203 edge_26_5_0_0 + 0.7340490883252964 edge_26_6_0_0
   - 0.2267704864915192 edge_26_9_0_0 - 0.5117530579949563 edge_26_10_0_0
   - 0.7866432010726047 edge_26_12_0_0 - 0.7423238572723486 edge_26_14_0_0
   - 0.65331113403924 edge_26_15_0_0 + 0.6133984380679653 edge_26_16_0_0
   + 1.281334572546 edge_26_18_0_0 - 0.0697020370826593 edge_26_20_0_0
   - 0.065766808158096 edge_26_21_0_0 + 0.3838055695980743 edge_26_22_0_0
   + 2.059399858785863 edge_26_23_0_0 + 2.292036342386777 edge_26_24_0_0
   + 0.3874598631170806 edge_26_27_0_0 + 0.87495046546956 edge_26_28_0_0
   + 0.888305718381159 edge_26_29_0_0 - 0.0470211960223052 edge_27_24_0_0
   + 1.1139654481204 edge_27_28_0_0 - 1.14446 edge_28_18_0_0
   - 1.46529490641 edge_28_20_0_0 - 0.924238 edge_28_21_0_0
   - 0.68914577625756 edge_28_23_0_0 - 0.049693829314129 edge_28_24_0_0
   - 0.068128779719616 edge_28_26_0_0 + 2.743702380407 edge_28_27_0_0
   + 1.0553193034888 edge_28_29_0_0
Subject To
 one_parent_1: edge_0_1_0_0 + edge_2_1_0_0 + edge_3_1_0_0 + edge_5_1_0_0
   + edge_10_1_0_0 + edge_15_1_0_0 + edge_18_1_0_0 + edge_26_1_0_0 = 1
 consume_one_flow_unit_1: flow_0_1_0_0 - flow_1_2_0_0 - flow_1_3_0_0
   - flow_1_5_0_0 - flow_1_6_0_0 - flow_1_10_0_0 - flow_1_12_0_0
   - flow_1_15_0_0 - flow_1_26_0_0 + flow_2_1_0_0 + flow_3_1_0_0
   + flow_5_1_0_0 + flow_10_1_0_0 + flow_15_1_0_0 + flow_18_1_0_0
   + flow_26_1_0_0 = 1
 one_parent_2: edge_0_2_0_0 + edge_1_2_0_0 + edge_3_2_0_0 + edge_5_2_0_0
   + edge_10_2_0_0 + edge_15_2_0_0 + edge_18_2_0_0 + edge_26_2_0_0 = 1
 consume_one_flow_unit_2: flow_0_2_0_0 + flow_1_2_0_0 - flow_2_1_0_0
   - flow_2_3_0_0 - flow_2_5_0_0 - flow_2_6_0_0 - flow_2_12_0_0
   - flow_2_26_0_0 + flow_3_2_0_0 + flow_5_2_0_0 + flow_10_2_0_0
   + flow_15_2_0_0 + flow_18_2_0_0 + flow_26_2_0_0 = 1
 one_parent_3: edge_0_3_0_0 + edge_1_3_0_0 + edge_2_3_0_0 + edge_5_3_0_0
   + edge_6_3_0_0 + edge_10_3_0_0 + edge_15_3_0_0 + edge_26_3_0_0 = 1
 consume_one_flow_unit_3: flow_0_3_0_0 + flow_1_3_0_0 + flow_2_3_0_0
   - flow_3_1_0_0 - flow_3_2_0_0 - flow_3_5_0_0 - flow_3_6_0_0
   + flow_5_3_0_0 + flow_6_3_0_0 + flow_10_3_0_0 + flow_15_3_0_0
   + flow_26_3_0_0 = 1
 one_parent_4: = 1
 consume_one_flow_unit_4: = 1
 one_parent_5: edge_1_5_0_0 + edge_2_5_0_0 + edge_3_5_0_0 + edge_6_5_0_0
   + edge_9_5_0_0 + edge_10_5_0_0 + edge_15_5_0_0 + edge_26_5_0_0 = 1
 consume_one_flow_unit_5: flow_1_5_0_0 + flow_2_5_0_0 + flow_3_5_0_0
   - flow_5_1_0_0 - flow_5_2_0_0 - flow_5_3_0_0 - flow_5_6_0_0
   - flow_5_9_0_0 - flow_5_10_0_0 - flow_5_15_0_0 + flow_6_5_0_0
   + flow_9_5_0_0 + flow_10_5_0_0 + flow_15_5_0_0 + flow_26_5_0_0 = 1
 one_parent_6: edge_1_6_0_0 + edge_2_6_0_0 + edge_3_6_0_0 + edge_5_6_0_0
   + edge_9_6_0_0 + edge_10_6_0_0 + edge_15_6_0_0 + edge_26_6_0_0 = 1
 consume_one_flow_unit_6: flow_1_6_0_0 + flow_2_6_0_0 + flow_3_6_0_0
   + flow_5_6_0_0 - flow_6_3_0_0 - flow_6_5_0_0 - flow_6_9_0_0
   - flow_6_10_0_0 - flow_6_12_0_0 - flow_6_15_0_0 + flow_9_6_0_0
   + flow_10_6_0_0 + flow_15_6_0_0 + flow_26_6_0_0 = 1
 one_parent_7: = 1
 consume_one_flow_unit_7: = 1
 one_parent_8: = 1
 consume_one_flow_unit_8: = 1
 one_parent_9: edge_5_9_0_0 + edge_6_9_0_0 + edge_10_9_0_0 + edge_12_9_0_0
   + edge_14_9_0_0 + edge_15_9_0_0 + edge_18_9_0_0 + edge_26_9_0_0 = 1
 consume_one_flow_unit_9: flow_5_9_0_0 + flow_6_9_0_0 - flow_9_5_0_0
   - flow_9_6_0_0 - flow_9_10_0_0 - flow_9_12_0_0 + flow_10_9_0_0
   + flow_12_9_0_0 + flow_14_9_0_0 + flow_15_9_0_0 + flow_18_9_0_0
   + flow_26_9_0_0 = 1
 one_parent_10: edge_0_10_0_0 + edge_1_10_0_0 + edge_5_10_0_0
   + edge_6_10_0_0 + edge_9_10_0_0 + edge_15_10_0_0 + edge_18_10_0_0
   + edge_26_10_0_0 = 1
 consume_one_flow_unit_10: flow_0_10_0_0 + flow_1_10_0_0 + flow_5_10_0_0
   + flow_6_10_0_0 + flow_9_10_0_0 - flow_10_1_0_0 - flow_10_2_0_0
   - flow_10_3_0_0 - flow_10_5_0_0 - flow_10_6_0_0 - flow_10_9_0_0
   - flow_10_12_0_0 - flow_10_14_0_0 - flow_10_15_0_0 - flow_10_16_0_0
   - flow_10_18_0_0 - flow_10_20_0_0 - flow_10_21_0_0 - flow_10_22_0_0
   - flow_10_23_0_0 - flow_10_24_0_0 - flow_10_26_0_0 - flow_10_27_0_0
   - flow_10_28_0_0 - flow_10_29_0_0 + flow_15_10_0_0 + flow_18_10_0_0
   + flow_26_10_0_0 = 1
 one_parent_11: = 1
 consume_one_flow_unit_11: = 1
 one_parent_12: edge_1_12_0_0 + edge_2_12_0_0 + edge_6_12_0_0
   + edge_9_12_0_0 + edge_10_12_0_0 + edge_14_12_0_0 + edge_15_12_0_0
   + edge_26_12_0_0 = 1
 consume_one_flow_unit_12: flow_1_12_0_0 + flow_2_12_0_0 + flow_6_12_0_0
   + flow_9_12_0_0 + flow_10_12_0_0 - flow_12_9_0_0 - flow_12_14_0_0
   + flow_14_12_0_0 + flow_15_12_0_0 + flow_26_12_0_0 = 1
 one_parent_13: = 1
 consume_one_flow_unit_13: = 1
 one_parent_14: edge_10_14_0_0 + edge_12_14_0_0 + edge_15_14_0_0
   + edge_18_14_0_0 + edge_26_14_0_0 = 1
 consume_one_flow_unit_14: flow_10_14_0_0 + flow_12_14_0_0 - flow_14_9_0_0
   - flow_14_12_0_0 - flow_14_29_0_0 + flow_15_14_0_0 + flow_18_14_0_0
   + flow_26_14_0_0 = 1
 one_parent_15: edge_0_15_0_0 + edge_1_15_0_0 + edge_5_15_0_0
   + edge_6_15_0_0 + edge_10_15_0_0 + edge_18_15_0_0 + edge_21_15_0_0
   + edge_26_15_0_0 = 1
 consume_one_flow_unit_15: flow_0_15_0_0 + flow_1_15_0_0 + flow_5_15_0_0
   + flow_6_15_0_0 + flow_10_15_0_0 - flow_15_1_0_0 - flow_15_2_0_0
   - flow_15_3_0_0 - flow_15_5_0_0 - flow_15_6_0_0 - flow_15_9_0_0
   - flow_15_10_0_0 - flow_15_12_0_0 - flow_15_14_0_0 - flow_15_16_0_0
   - flow_15_18_0_0 - flow_15_21_0_0 - flow_15_22_0_0 - flow_15_26_0_0
   - flow_15_29_0_0 + flow_18_15_0_0 + flow_21_15_0_0 + flow_26_15_0_0 = 1
 one_parent_16: edge_10_16_0_0 + edge_15_16_0_0 + edge_17_16_0_0
   + edge_18_16_0_0 + edge_21_16_0_0 + edge_23_16_0_0 + edge_26_16_0_0 = 1
 consume_one_flow_unit_16: flow_10_16_0_0 + flow_15_16_0_0 - flow_16_18_0_0
   - flow_16_20_0_0 - flow_16_21_0_0 + flow_17_16_0_0 + flow_18_16_0_0
   + flow_21_16_0_0 + flow_23_16_0_0 + flow_26_16_0_0 = 1
 one_parent_17: edge_18_17_0_0 + edge_21_17_0_0 = 1
 consume_one_flow_unit_17: - flow_17_16_0_0 + flow_18_17_0_0
   + flow_21_17_0_0 = 1
 one_parent_18: edge_0_18_0_0 + edge_10_18_0_0 + edge_15_18_0_0
   + edge_16_18_0_0 + edge_20_18_0_0 + edge_21_18_0_0 + edge_26_18_0_0
   + edge_28_18_0_0 = 1
 consume_one_flow_unit_18: flow_0_18_0_0 + flow_10_18_0_0 + flow_15_18_0_0
   + flow_16_18_0_0 - flow_18_1_0_0 - flow_18_2_0_0 - flow_18_9_0_0
   - flow_18_10_0_0 - flow_18_14_0_0 - flow_18_15_0_0 - flow_18_16_0_0
   - flow_18_17_0_0 - flow_18_20_0_0 - flow_18_21_0_0 - flow_18_22_0_0
   - flow_18_23_0_0 - flow_18_24_0_0 - flow_18_26_0_0 - flow_18_29_0_0
   + flow_20_18_0_0 + flow_21_18_0_0 + flow_26_18_0_0 + flow_28_18_0_0 = 1
 one_parent_19: = 1
 consume_one_flow_unit_19: = 1
 one_parent_20: edge_10_20_0_0 + edge_16_20_0_0 + edge_18_20_0_0
   + edge_21_20_0_0 + edge_23_20_0_0 + edge_26_20_0_0 + edge_28_20_0_0 = 1
 consume_one_flow_unit_20: flow_10_20_0_0 + flow_16_20_0_0 + flow_18_20_0_0
   - flow_20_18_0_0 - flow_20_21_0_0 - flow_20_22_0_0 - flow_20_26_0_0
   + flow_21_20_0_0 + flow_23_20_0_0 + flow_26_20_0_0 + flow_28_20_0_0 = 1
 one_parent_21: edge_10_21_0_0 + edge_15_21_0_0 + edge_16_21_0_0
   + edge_18_21_0_0 + edge_20_21_0_0 + edge_23_21_0_0 + edge_26_21_0_0
   + edge_28_21_0_0 = 1
 consume_one_flow_unit_21: flow_10_21_0_0 + flow_15_21_0_0 + flow_16_21_0_0
   + flow_18_21_0_0 + flow_20_21_0_0 - flow_21_15_0_0 - flow_21_16_0_0
   - flow_21_17_0_0 - flow_21_18_0_0 - flow_21_20_0_0 - flow_21_22_0_0
   - flow_21_23_0_0 - flow_21_24_0_0 - flow_21_26_0_0 - flow_21_27_0_0
   - flow_21_28_0_0 - flow_21_29_0_0 + flow_23_21_0_0 + flow_26_21_0_0
   + flow_28_21_0_0 = 1
 one_parent_22: edge_10_22_0_0 + edge_15_22_0_0 + edge_18_22_0_0
   + edge_20_22_0_0 + edge_21_22_0_0 + edge_23_22_0_0 + edge_26_22_0_0 = 1
 consume_one_flow_unit_22: flow_10_22_0_0 + flow_15_22_0_0 + flow_18_22_0_0
   + flow_20_22_0_0 + flow_21_22_0_0 - flow_22_23_0_0 + flow_23_22_0_0
   + flow_26_22_0_0 = 1
 one_parent_23: edge_10_23_0_0 + edge_18_23_0_0 + edge_21_23_0_0
   + edge_22_23_0_0 + edge_24_23_0_0 + edge_26_23_0_0 + edge_28_23_0_0 = 1
 consume_one_flow_unit_23: flow_10_23_0_0 + flow_18_23_0_0 + flow_21_23_0_0
   + flow_22_23_0_0 - flow_23_16_0_0 - flow_23_20_0_0 - flow_23_21_0_0
   - flow_23_22_0_0 - flow_23_24_0_0 - flow_23_27_0_0 - flow_23_28_0_0
   - flow_23_29_0_0 + flow_24_23_0_0 + flow_26_23_0_0 + flow_28_23_0_0 = 1
 one_parent_24: edge_10_24_0_0 + edge_18_24_0_0 + edge_21_24_0_0
   + edge_23_24_0_0 + edge_24_24_0_0 + edge_26_24_0_0 + edge_27_24_0_0
   + edge_28_24_0_0 = 1
 consume_one_flow_unit_24: flow_10_24_0_0 + flow_18_24_0_0 + flow_21_24_0_0
   + flow_23_24_0_0 - flow_24_23_0_0 - flow_24_27_0_0 - flow_24_28_0_0
   + flow_26_24_0_0 + flow_27_24_0_0 + flow_28_24_0_0 = 1
 one_parent_25: = 1
 consume_one_flow_unit_25: = 1
 one_parent_26: edge_1_26_0_0 + edge_2_26_0_0 + edge_10_26_0_0
   + edge_15_26_0_0 + edge_18_26_0_0 + edge_20_26_0_0 + edge_21_26_0_0
   + edge_28_26_0_0 = 1
 consume_one_flow_unit_26: flow_1_26_0_0 + flow_2_26_0_0 + flow_10_26_0_0
   + flow_15_26_0_0 + flow_18_26_0_0 + flow_20_26_0_0 + flow_21_26_0_0
   - flow_26_1_0_0 - flow_26_2_0_0 - flow_26_3_0_0 - flow_26_5_0_0
   - flow_26_6_0_0 - flow_26_9_0_0 - flow_26_10_0_0 - flow_26_12_0_0
   - flow_26_14_0_0 - flow_26_15_0_0 - flow_26_16_0_0 - flow_26_18_0_0
   - flow_26_20_0_0 - flow_26_21_0_0 - flow_26_22_0_0 - flow_26_23_0_0
   - flow_26_24_0_0 - flow_26_27_0_0 - flow_26_28_0_0 - flow_26_29_0_0
   + flow_28_26_0_0 = 1
 one_parent_27: edge_10_27_0_0 + edge_21_27_0_0 + edge_23_27_0_0
   + edge_24_27_0_0 + edge_26_27_0_0 + edge_28_27_0_0 = 1
 consume_one_flow_unit_27: flow_10_27_0_0 + flow_21_27_0_0 + flow_23_27_0_0
   + flow_24_27_0_0 + flow_26_27_0_0 - flow_27_24_0_0 - flow_27_28_0_0
   + flow_28_27_0_0 = 1
 one_parent_28: edge_10_28_0_0 + edge_21_28_0_0 + edge_23_28_0_0
   + edge_24_28_0_0 + edge_26_28_0_0 + edge_27_28_0_0 = 1
 consume_one_flow_unit_28: flow_10_28_0_0 + flow_21_28_0_0 + flow_23_28_0_0
   + flow_24_28_0_0 + flow_26_28_0_0 + flow_27_28_0_0 - flow_28_18_0_0
   - flow_28_20_0_0 - flow_28_21_0_0 - flow_28_23_0_0 - flow_28_24_0_0
   - flow_28_26_0_0 - flow_28_27_0_0 - flow_28_29_0_0 = 1
 one_parent_29: edge_10_29_0_0 + edge_14_29_0_0 + edge_15_29_0_0
   + edge_18_29_0_0 + edge_21_29_0_0 + edge_23_29_0_0 + edge_26_29_0_0
   + edge_28_29_0_0 = 1
 consume_one_flow_unit_29: flow_10_29_0_0 + flow_14_29_0_0 + flow_15_29_0_0
   + flow_18_29_0_0 + flow_21_29_0_0 + flow_23_29_0_0 + flow_26_29_0_0
   + flow_28_29_0_0 = 1
 root_flow: flow_0_1_0_0 + flow_0_2_0_0 + flow_0_3_0_0 + flow_0_10_0_0
   + flow_0_15_0_0 + flow_0_18_0_0 = 29
 inactive_no_flow_0_1_0_0: flow_0_1_0_0 - 1000 edge_0_1_0_0 <= 0
 inactive_no_flow_0_2_0_0: flow_0_2_0_0 - 1000 edge_0_2_0_0 <= 0
 inactive_no_flow_0_3_0_0: flow_0_3_0_0 - 1000 edge_0_3_0_0 <= 0
 inactive_no_flow_0_10_0_0: flow_0_10_0_0 - 1000 edge_0_10_0_0 <= 0
 inactive_no_flow_0_15_0_0: flow_0_15_0_0 - 1000 edge_0_15_0_0 <= 0
 inactive_no_flow_0_18_0_0: flow_0_18_0_0 - 1000 edge_0_18_0_0 <= 0
 inactive_no_flow_1_2_0_0: flow_1_2_0_0 - 1000 edge_1_2_0_0 <= 0
 inactive_no_flow_1_3_0_0: flow_1_3_0_0 - 1000 edge_1_3_0_0 <= 0
 inactive_no_flow_1_5_0_0: flow_1_5_0_0 - 1000 edge_1_5_0_0 <= 0
 inactive_no_flow_1_6_0_0: flow_1_6_0_0 - 1000 edge_1_6_0_0 <= 0
 inactive_no_flow_1_10_0_0: flow_1_10_0_0 - 1000 edge_1_10_0_0 <= 0
 inactive_no_flow_1_12_0_0: flow_1_12_0_0 - 1000 edge_1_12_0_0 <= 0
 inactive_no_flow_1_15_0_0: flow_1_15_0_0 - 1000 edge_1_15_0_0 <= 0
 inactive_no_flow_1_26_0_0: flow_1_26_0_0 - 1000 edge_1_26_0_0 <= 0
 inactive_no_flow_2_1_0_0: flow_2_1_0_0 - 1000 edge_2_1_0_0 <= 0
 inactive_no_flow_2_3_0_0: flow_2_3_0_0 - 1000 edge_2_3_0_0 <= 0
 inactive_no_flow_2_5_0_0: flow_2_5_0_0 - 1000 edge_2_5_0_0 <= 0
 inactive_no_flow_2_6_0_0: flow_2_6_0_0 - 1000 edge_2_6_0_0 <= 0
 inactive_no_flow_2_12_0_0: flow_2_12_0_0 - 1000 edge_2_12_0_0 <= 0
 inactive_no_flow_2_26_0_0: flow_2_26_0_0 - 1000 edge_2_26_0_0 <= 0
 inactive_no_flow_3_1_0_0: flow_3_1_0_0 - 1000 edge_3_1_0_0 <= 0
 inactive_no_flow_3_2_0_0: flow_3_2_0_0 - 1000 edge_3_2_0_0 <= 0
 inactive_no_flow_3_5_0_0: flow_3_5_0_0 - 1000 edge_3_5_0_0 <= 0
 inactive_no_flow_3_6_0_0: flow_3_6_0_0 - 1000 edge_3_6_0_0 <= 0
 inactive_no_flow_5_1_0_0: flow_5_1_0_0 - 1000 edge_5_1_0_0 <= 0
 inactive_no_flow_5_2_0_0: flow_5_2_0_0 - 1000 edge_5_2_0_0 <= 0
 inactive_no_flow_5_3_0_0: flow_5_3_0_0 - 1000 edge_5_3_0_0 <= 0
 inactive_no_flow_5_6_0_0: flow_5_6_0_0 - 1000 edge_5_6_0_0 <= 0
 inactive_no_flow_5_9_0_0: flow_5_9_0_0 - 1000 edge_5_9_0_0 <= 0
 inactive_no_flow_5_10_0_0: flow_5_10_0_0 - 1000 edge_5_10_0_0 <= 0
 inactive_no_flow_5_15_0_0: flow_5_15_0_0 - 1000 edge_5_15_0_0 <= 0
 inactive_no_flow_6_3_0_0: flow_6_3_0_0 - 1000 edge_6_3_0_0 <= 0
 inactive_no_flow_6_5_0_0: flow_6_5_0_0 - 1000 edge_6_5_0_0 <= 0
 inactive_no_flow_6_9_0_0: flow_6_9_0_0 - 1000 edge_6_9_0_0 <= 0
 inactive_no_flow_6_10_0_0: flow_6_10_0_0 - 1000 edge_6_10_0_0 <= 0
 inactive_no_flow_6_12_0_0: flow_6_12_0_0 - 1000 edge_6_12_0_0 <= 0
 inactive_no_flow_6_15_0_0: flow_6_15_0_0 - 1000 edge_6_15_0_0 <= 0
 inactive_no_flow_9_5_0_0: flow_9_5_0_0 - 1000 edge_9_5_0_0 <= 0
 inactive_no_flow_9_6_0_0: flow_9_6_0_0 - 1000 edge_9_6_0_0 <= 0
 inactive_no_flow_9_10_0_0: flow_9_10_0_0 - 1000 edge_9_10_0_0 <= 0
 inactive_no_flow_9_12_0_0: flow_9_12_0_0 - 1000 edge_9_12_0_0 <= 0
 inactive_no_flow_10_1_0_0: flow_10_1_0_0 - 1000 edge_10_1_0_0 <= 0
 inactive_no_flow_10_2_0_0: flow_10_2_0_0 - 1000 edge_10_2_0_0 <= 0
 inactive_no_flow_10_3_0_0: flow_10_3_0_0 - 1000 edge_10_3_0_0 <= 0
 inactive_no_flow_10_5_0_0: flow_10_5_0_0 - 1000 edge_10_5_0_0 <= 0
 inactive_no_flow_10_6_0_0: flow_10_6_0_0 - 1000 edge_10_6_0_0 <= 0
 inactive_no_flow_10_9_0_0: flow_10_9_0_0 - 1000 edge_10_9_0_0 <= 0
 inactive_no_flow_10_12_0_0: flow_10_12_0_0 - 1000 edge_10_12_0_0 <= 0
 inactive_no_flow_10_14_0_0: flow_10_14_0_0 - 1000 edge_10_14_0_0 <= 0
 inactive_no_flow_10_15_0_0: flow_10_15_0_0 - 1000 edge_10_15_0_0 <= 0
 inactive_no_flow_10_16_0_0: flow_10_16_0_0 - 1000 edge_10_16_0_0 <= 0
 inactive_no_flow_10_18_0_0: flow_10_18_0_0 - 1000 edge_10_18_0_0 <= 0
 inactive_no_flow_10_20_0_0: flow_10_20_0_0 - 1000 edge_10_20_0_0 <= 0
 inactive_no_flow_10_21_0_0: flow_10_21_0_0 - 1000 edge_10_21_0_0 <= 0
 inactive_no_flow_10_22_0_0: flow_10_22_0_0 - 1000 edge_10_22_0_0 <= 0
 inactive_no_flow_10_23_0_0: flow_10_23_0_0 - 1000 edge_10_23_0_0 <= 0
 inactive_no_flow_10_24_0_0: flow_10_24_0_0 - 1000 edge_10_24_0_0 <= 0
 inactive_no_flow_10_26_0_0: flow_10_26_0_0 - 1000 edge_10_26_0_0 <= 0
 inactive_no_flow_10_27_0_0: flow_10_27_0_0 - 1000 edge_10_27_0_0 <= 0
 inactive_no_flow_10_28_0_0: flow_10_28_0_0 - 1000 edge_10_28_0_0 <= 0
 inactive_no_flow_10_29_0_0: flow_10_29_0_0 - 1000 edge_10_29_0_0 <= 0
 inactive_no_flow_12_9_0_0: flow_12_9_0_0 - 1000 edge_12_9_0_0 <= 0
 inactive_no_flow_12_14_0_0: flow_12_14_0_0 - 1000 edge_12_14_0_0 <= 0
 inactive_no_flow_14_9_0_0: flow_14_9_0_0 - 1000 edge_14_9_0_0 <= 0
 inactive_no_flow_14_12_0_0: flow_14_12_0_0 - 1000 edge_14_12_0_0 <= 0
 inactive_no_flow_14_29_0_0: flow_14_29_0_0 - 1000 edge_14_29_0_0 <= 0
 inactive_no_flow_15_1_0_0: flow_15_1_0_0 - 1000 edge_15_1_0_0 <= 0
 inactive_no_flow_15_2_0_0: flow_15_2_0_0 - 1000 edge_15_2_0_0 <= 0
 inactive_no_flow_15_3_0_0: flow_15_3_0_0 - 1000 edge_15_3_0_0 <= 0
 inactive_no_flow_15_5_0_0: flow_15_5_0_0 - 1000 edge_15_5_0_0 <= 0
 inactive_no_flow_15_6_0_0: flow_15_6_0_0 - 1000 edge_15_6_0_0 <= 0
 inactive_no_flow_15_9_0_0: flow_15_9_0_0 - 1000 edge_15_9_0_0 <= 0
 inactive_no_flow_15_10_0_0: flow_15_10_0_0 - 1000 edge_15_10_0_0 <= 0
 inactive_no_flow_15_12_0_0: flow_15_12_0_0 - 1000 edge_15_12_0_0 <= 0
 inactive_no_flow_15_14_0_0: flow_15_14_0_0 - 1000 edge_15_14_0_0 <= 0
 inactive_no_flow_15_16_0_0: flow_15_16_0_0 - 1000 edge_15_16_0_0 <= 0
 inactive_no_flow_15_18_0_0: flow_15_18_0_0 - 1000 edge_15_18_0_0 <= 0
 inactive_no_flow_15_21_0_0: flow_15_21_0_0 - 1000 edge_15_21_0_0 <= 0
 inactive_no_flow_15_22_0_0: flow_15_22_0_0 - 1000 edge_15_22_0_0 <= 0
 inactive_no_flow_15_26_0_0: flow_15_26_0_0 - 1000 edge_15_26_0_0 <= 0
 inactive_no_flow_15_29_0_0: flow_15_29_0_0 - 1000 edge_15_29_0_0 <= 0
 inactive_no_flow_16_18_0_0: flow_16_18_0_0 - 1000 edge_16_18_0_0 <= 0
 inactive_no_flow_16_20_0_0: flow_16_20_0_0 - 1000 edge_16_20_0_0 <= 0
 inactive_no_flow_16_21_0_0: flow_16_21_0_0 - 1000 edge_16_21_0_0 <= 0
 inactive_no_flow_17_16_0_0: flow_17_16_0_0 - 1000 edge_17_16_0_0 <= 0
 inactive_no_flow_18_1_0_0: flow_18_1_0_0 - 1000 edge_18_1_0_0 <= 0
 inactive_no_flow_18_2_0_0: flow_18_2_0_0 - 1000 edge_18_2_0_0 <= 0
 inactive_no_flow_18_9_0_0: flow_18_9_0_0 - 1000 edge_18_9_0_0 <= 0
 inactive_no_flow_18_10_0_0: flow_18_10_0_0 - 1000 edge_18_10_0_0 <= 0
 inactive_no_flow_18_14_0_0: flow_18_14_0_0 - 1000 edge_18_14_0_0 <= 0
 inactive_no_flow_18_15_0_0: flow_18_15_0_0 - 1000 edge_18_15_0_0 <= 0
 inactive_no_flow_18_16_0_0: flow_18_16_0_0 - 1000 edge_18_16_0_0 <= 0
 inactive_no_flow_18_17_0_0: flow_18_17_0_0 - 1000 edge_18_17_0_0 <= 0
 inactive_no_flow_18_20_0_0: flow_18_20_0_0 - 1000 edge_18_20_0_0 <= 0
 inactive_no_flow_18_21_0_0: flow_18_21_0_0 - 1000 edge_18_21_0_0 <= 0
 inactive_no_flow_18_22_0_0: flow_18_22_0_0 - 1000 edge_18_22_0_0 <= 0
 inactive_no_flow_18_23_0_0: flow_18_23_0_0 - 1000 edge_18_23_0_0 <= 0
 inactive_no_flow_18_24_0_0: flow_18_24_0_0 - 1000 edge_18_24_0_0 <= 0
 inactive_no_flow_18_26_0_0: flow_18_26_0_0 - 1000 edge_18_26_0_0 <= 0
 inactive_no_flow_18_29_0_0: flow_18_29_0_0 - 1000 edge_18_29_0_0 <= 0
 inactive_no_flow_20_18_0_0: flow_20_18_0_0 - 1000 edge_20_18_0_0 <= 0
 inactive_no_flow_20_21_0_0: flow_20_21_0_0 - 1000 edge_20_21_0_0 <= 0
 inactive_no_flow_20_22_0_0: flow_20_22_0_0 - 1000 edge_20_22_0_0 <= 0
 inactive_no_flow_20_26_0_0: flow_20_26_0_0 - 1000 edge_20_26_0_0 <= 0
 inactive_no_flow_21_15_0_0: flow_21_15_0_0 - 1000 edge_21_15_0_0 <= 0
 inactive_no_flow_21_16_0_0: flow_21_16_0_0 - 1000 edge_21_16_0_0 <= 0
 inactive_no_flow_21_17_0_0: flow_21_17_0_0 - 1000 edge_21_17_0_0 <= 0
 inactive_no_flow_21_18_0_0: flow_21_18_0_0 - 1000 edge_21_18_0_0 <= 0
 inactive_no_flow_21_20_0_0: flow_21_20_0_0 - 1000 edge_21_20_0_0 <= 0
 inactive_no_flow_21_22_0_0: flow_21_22_0_0 - 1000 edge_21_22_0_0 <= 0
 inactive_no_flow_21_23_0_0: flow_21_23_0_0 - 1000 edge_21_23_0_0 <= 0
 inactive_no_flow_21_24_0_0: flow_21_24_0_0 - 1000 edge_21_24_0_0 <= 0
 inactive_no_flow_21_26_0_0: flow_21_26_0_0 - 1000 edge_21_26_0_0 <= 0
 inactive_no_flow_21_27_0_0: flow_21_27_0_0 - 1000 edge_21_27_0_0 <= 0
 inactive_no_flow_21_28_0_0: flow_21_28_0_0 - 1000 edge_21_28_0_0 <= 0
 inactive_no_flow_21_29_0_0: flow_21_29_0_0 - 1000 edge_21_29_0_0 <= 0
 inactive_no_flow_22_23_0_0: flow_22_23_0_0 - 1000 edge_22_23_0_0 <= 0
 inactive_no_flow_23_16_0_0: flow_23_16_0_0 - 1000 edge_23_16_0_0 <= 0
 inactive_no_flow_23_20_0_0: flow_23_20_0_0 - 1000 edge_23_20_0_0 <= 0
 inactive_no_flow_23_21_0_0: flow_23_21_0_0 - 1000 edge_23_21_0_0 <= 0
 inactive_no_flow_23_22_0_0: flow_23_22_0_0 - 1000 edge_23_22_0_0 <= 0
 inactive_no_flow_23_24_0_0: flow_23_24_0_0 - 1000 edge_23_24_0_0 <= 0
 inactive_no_flow_23_27_0_0: flow_23_27_0_0 - 1000 edge_23_27_0_0 <= 0
 inactive_no_flow_23_28_0_0: flow_23_28_0_0 - 1000 edge_23_28_0_0 <= 0
 inactive_no_flow_23_29_0_0: flow_23_29_0_0 - 1000 edge_23_29_0_0 <= 0
 inactive_no_flow_24_23_0_0: flow_24_23_0_0 - 1000 edge_24_23_0_0 <= 0
 inactive_no_flow_24_24_0_0: flow_24_24_0_0 - 1000 edge_24_24_0_0 <= 0
 inactive_no_flow_24_27_0_0: flow_24_27_0_0 - 1000 edge_24_27_0_0 <= 0
 inactive_no_flow_24_28_0_0: flow_24_28_0_0 - 1000 edge_24_28_0_0 <= 0
 inactive_no_flow_26_1_0_0: flow_26_1_0_0 - 1000 edge_26_1_0_0 <= 0
 inactive_no_flow_26_2_0_0: flow_26_2_0_0 - 1000 edge_26_2_0_0 <= 0
 inactive_no_flow_26_3_0_0: flow_26_3_0_0 - 1000 edge_26_3_0_0 <= 0
 inactive_no_flow_26_5_0_0: flow_26_5_0_0 - 1000 edge_26_5_0_0 <= 0
 inactive_no_flow_26_6_0_0: flow_26_6_0_0 - 1000 edge_26_6_0_0 <= 0
 inactive_no_flow_26_9_0_0: flow_26_9_0_0 - 1000 edge_26_9_0_0 <= 0
 inactive_no_flow_26_10_0_0: flow_26_10_0_0 - 1000 edge_26_10_0_0 <= 0
 inactive_no_flow_26_12_0_0: flow_26_12_0_0 - 1000 edge_26_12_0_0 <= 0
 inactive_no_flow_26_14_0_0: flow_26_14_0_0 - 1000 edge_26_14_0_0 <= 0
 inactive_no_flow_26_15_0_0: flow_26_15_0_0 - 1000 edge_26_15_0_0 <= 0
 inactive_no_flow_26_16_0_0: flow_26_16_0_0 - 1000 edge_26_16_0_0 <= 0
 inactive_no_flow_26_18_0_0: flow_26_18_0_0 - 1000 edge_26_18_0_0 <= 0
 inactive_no_flow_26_20_0_0: flow_26_20_0_0 - 1000 edge_26_20_0_0 <= 0
 inactive_no_flow_26_21_0_0: flow_26_21_0_0 - 1000 edge_26_21_0_0 <= 0
 inactive_no_flow_26_22_0_0: flow_26_22_0_0 - 1000 edge_26_22_0_0 <= 0
 inactive_no_flow_26_23_0_0: flow_26_23_0_0 - 1000 edge_26_23_0_0 <= 0
 inactive_no_flow_26_24_0_0: flow_26_24_0_0 - 1000 edge_26_24_0_0 <= 0
 inactive_no_flow_26_27_0_0: flow_26_27_0_0 - 1000 edge_26_27_0_0 <= 0
 inactive_no_flow_26_28_0_0: flow_26_28_0_0 - 1000 edge_26_28_0_0 <= 0
 inactive_no_flow_26_29_0_0: flow_26_29_0_0 - 1000 edge_26_29_0_0 <= 0
 inactive_no_flow_27_24_0_0: flow_27_24_0_0 - 1000 edge_27_24_0_0 <= 0
 inactive_no_flow_27_28_0_0: flow_27_28_0_0 - 1000 edge_27_28_0_0 <= 0
 inactive_no_flow_28_18_0_0: flow_28_18_0_0 - 1000 edge_28_18_0_0 <= 0
 inactive_no_flow_28_20_0_0: flow_28_20_0_0 - 1000 edge_28_20_0_0 <= 0
 inactive_no_flow_28_21_0_0: flow_28_21_0_0 - 1000 edge_28_21_0_0 <= 0
 inactive_no_flow_28_23_0_0: flow_28_23_0_0 - 1000 edge_28_23_0_0 <= 0
 inactive_no_flow_28_24_0_0: flow_28_24_0_0 - 1000 edge_28_24_0_0 <= 0
 inactive_no_flow_28_26_0_0: flow_28_26_0_0 - 1000 edge_28_26_0_0 <= 0
 inactive_no_flow_28_27_0_0: flow_28_27_0_0 - 1000 edge_28_27_0_0 <= 0
 inactive_no_flow_28_29_0_0: flow_28_29_0_0 - 1000 edge_28_29_0_0 <= 0
Bounds
Binaries
 edge_0_1_0_0 edge_0_2_0_0 edge_0_3_0_0 edge_0_10_0_0 edge_0_15_0_0
 edge_0_18_0_0 edge_1_2_0_0 edge_1_3_0_0 edge_1_5_0_0 edge_1_6_0_0
 edge_1_10_0_0 edge_1_12_0_0 edge_1_15_0_0 edge_1_26_0_0 edge_2_1_0_0
 edge_2_3_0_0 edge_2_5_0_0 edge_2_6_0_0 edge_2_12_0_0 edge_2_26_0_0
 edge_3_1_0_0 edge_3_2_0_0 edge_3_5_0_0 edge_3_6_0_0 edge_5_1_0_0
 edge_5_2_0_0 edge_5_3_0_0 edge_5_6_0_0 edge_5_9_0_0 edge_5_10_0_0
 edge_5_15_0_0 edge_6_3_0_0 edge_6_5_0_0 edge_6_9_0_0 edge_6_10_0_0
 edge_6_12_0_0 edge_6_15_0_0 edge_9_5_0_0 edge_9_6_0_0 edge_9_10_0_0
 edge_9_12_0_0 edge_10_1_0_0 edge_10_2_0_0 edge_10_3_0_0 edge_10_5_0_0
 edge_10_6_0_0 edge_10_9_0_0 edge_10_12_0_0 edge_10_14_0_0 edge_10_15_0_0
 edge_10_16_0_0 edge_10_18_0_0 edge_10_20_0_0 edge_10_21_0_0 edge_10_22_0_0
 edge_10_23_0_0 edge_10_24_0_0 edge_10_26_0_0 edge_10_27_0_0 edge_10_28_0_0
 edge_10_29_0_0 edge_12_9_0_0 edge_12_14_0_0 edge_14_9_0_0 edge_14_12_0_0
 edge_14_29_0_0 edge_15_1_0_0 edge_15_2_0_0 edge_15_3_0_0 edge_15_5_0_0
 edge_15_6_0_0 edge_15_9_0_0 edge_15_10_0_0 edge_15_12_0_0 edge_15_14_0_0
 edge_15_16_0_0 edge_15_18_0_0 edge_15_21_0_0 edge_15_22_0_0 edge_15_26_0_0
 edge_15_29_0_0 edge_16_18_0_0 edge_16_20_0_0 edge_16_21_0_0 edge_17_16_0_0
 edge_18_1_0_0 edge_18_2_0_0 edge_18_9_0_0 edge_18_10_0_0 edge_18_14_0_0
 edge_18_15_0_0 edge_18_16_0_0 edge_18_17_0_0 edge_18_20_0_0 edge_18_21_0_0
 edge_18_22_0_0 edge_18_23_0_0 edge_18_24_0_0 edge_18_26_0_0 edge_18_29_0_0
 edge_20_18_0_0 edge_20_21_0_0 edge_20_22_0_0 edge_20_26_0_0 edge_21_15_0_0
 edge_21_16_0_0 edge_21_17_0_0 edge_21_18_0_0 edge_21_20_0_0 edge_21_22_0_0
 edge_21_23_0_0 edge_21_24_0_0 edge_21_26_0_0 edge_21_27_0_0 edge_21_28_0_0
 edge_21_29_0_0 edge_22_23_0_0 edge_23_16_0_0 edge_23_20_0_0 edge_23_21_0_0
 edge_23_22_0_0 edge_23_24_0_0 edge_23_27_0_0 edge_23_28_0_0 edge_23_29_0_0
 edge_24_23_0_0 edge_24_24_0_0 edge_24_27_0_0 edge_24_28_0_0 edge_26_1_0_0
 edge_26_2_0_0 edge_26_3_0_0 edge_26_5_0_0 edge_26_6_0_0 edge_26_9_0_0
 edge_26_10_0_0 edge_26_12_0_0 edge_26_14_0_0 edge_26_15_0_0 edge_26_16_0_0
 edge_26_18_0_0 edge_26_20_0_0 edge_26_21_0_0 edge_26_22_0_0 edge_26_23_0_0
 edge_26_24_0_0 edge_26_27_0_0 edge_26_28_0_0 edge_26_29_0_0 edge_27_24_0_0
 edge_27_28_0_0 edge_28_18_0_0 edge_28_20_0_0 edge_28_21_0_0 edge_28_23_0_0
 edge_28_24_0_0 edge_28_26_0_0 edge_28_27_0_0 edge_28_29_0_0
End
